142 24 152 167 190 184 196 102 156 131 48 136 3 180 43 124 183 15 179 18 68 7 110 103 200 47 132 171 130 134 58 191 113 176 69 71 11 144 87 17 174 34 76 1 60 2 185 141 135 120 96 175 
4 92 195 129 52 74 101 53 192 112 50 157 33 107 82 
182 57 133 147 40 16 98 119 161 72 169 126 22 70 41 55 81 194 158 154 
150 187 163 28 6 78 42 172 197 181 122 77 35 164 104 25 10 170 19 193 73 146 93 39 
84 199 127 118 105 88 155 65 168 99 94 151 160 32 38 114 86 173 188 29 139 21 166 100 66 121 115 123 137 13 75 8 97 30 64 67 
140 54 89 37 9 12 59 143 177 128 125 189 109 165 85 45 56 108 117 23 31 106 61 198 91 111 145 51 27 80 44 116 95 83 148 
153 49 14 162 186 20 26 62 5 159 46 138 149 63 79 90 178 36 
